93 1943
4 6 8 10 13 14 17 18 24 26 28 30 31 32 34 35 37 39 41 42 44 45 46 47 54 57 61 65 66 67 68 69 75 76 78 81 83 85 86 87 88 90 91
3 10 16 18 20 23 24 26 33 34 36 42 48 49 50 51 57 60 65 66 67 69 72 75 76 77 81 84 88 91
12 15 17 20 21 22 23 24 25 28 29 30 36 37 38 40 41 42 44 47 50 52 53 56 59 64 65 66 68 74 80 82 83 84 87 89 90 92
1 4 5 6 7 8 10 11 13 15 17 18 20 21 22 23 25 28 31 33 35 37 38 40 43 44 45 47 48 51 52 53 56 62 63 68 69 70 71 73 76 77 81 84 88 91
0 3 5 7 10 11 15 16 21 24 25 36 39 40 42 43 44 45 46 47 49 50 51 53 57 61 62 63 65 67 68 70 71 75 78 86 87 88 89 90 91
3 4 8 10 11 12 13 15 16 17 22 24 25 27 28 29 34 35 40 41 45 52 56 58 60 62 63 64 65 68 70 73 74 75 81 82 85 86 87 89 90 91 92
0 3 8 9 11 15 16 17 18 19 20 21 24 29 30 31 33 34 38 40 42 44 47 48 51 53 55 56 58 59 60 61 62 63 67 68 71 72 75 76 83 84 85 87 90 91
3 4 8 11 15 16 17 19 20 21 23 26 31 32 33 35 41 45 46 47 48 49 50 51 54 56 60 62 64 68 69 70 71 73 76 78 79 80 82 84 85 86 87 89
0 3 5 6 7 10 12 14 15 16 17 19 20 21 23 24 27 31 32 33 34 35 36 40 41 42 43 45 46 47 50 52 55 56 58 59 60 67 68 71 73 76 78 80 81 82 85 87 89 91
6 11 13 14 17 20 22 26 27 28 31 35 36 42 43 46 49 50 51 52 55 60 61 63 64 65 66 67 68 69 71 74 76 77 79 81 85 89 91 92
0 1 3 4 5 8 13 14 19 21 22 24 26 29 33 36 37 39 40 45 48 50 52 53 55 56 61 62 65 66 67 70 71 73 75 78 79 80 81 84 86 87 91
3 4 5 6 7 9 13 15 16 20 21 24 25 26 27 31 33 35 36 37 39 41 42 44 45 47 48 49 50 57 58 61 64 66 69 70 71 76 77 82 83 84 87 88 90
2 5 8 17 18 19 20 21 23 26 30 31 32 33 42 46 49 50 55 56 58 60 63 64 65 66 68 69 75 77 81 84 85 89
0 3 5 9 10 11 15 17 20 24 25 26 28 29 36 40 46 47 51 52 53 55 56 57 58 61 62 63 67 68 69 70 71 73 75 76 80 81 82 84 87 88 89 90 91 92
0 8 9 10 15 16 20 21 24 25 28 34 37 39 41 47 48 51 52 54 56 57 58 59 61 65 68 69 73 78 81 82 84 85 86 87 89 92
2 3 4 5 6 7 8 11 13 14 18 21 23 24 30 31 33 35 36 38 40 43 44 48 49 50 52 54 55 59 62 67 68 70 72 74 75 83 88 92
1 4 5 6 7 8 11 14 18 27 28 29 33 38 39 41 44 46 48 49 51 52 54 56 59 62 63 65 66 70 71 72 73 74 75 77 78 79 83 85 87 89 92
0 2 3 5 6 7 8 9 12 13 20 21 22 23 26 27 29 31 32 35 36 38 39 40 41 45 47 49 50 51 52 54 55 56 61 63 66 68 69 71 73 74 79 83 86 89 91
0 1 3 6 12 15 16 23 24 25 27 28 31 32 33 34 35 36 38 39 40 42 44 47 50 53 55 56 59 61 62 72 74 79 82 83 84 89
6 7 8 10 12 20 21 22 24 26 27 28 30 31 33 41 42 45 46 51 52 54 55 73 74 76 79 80 81 87 89 91
1 2 3 6 7 8 9 11 12 13 14 17 19 21 22 23 24 29 30 33 35 36 37 38 40 42 43 44 45 50 54 55 56 62 66 71 73 74 76 78 79 81 83 86 87 88 90 91
2 3 4 6 7 8 10 11 12 14 15 17 19 20 26 27 28 30 31 36 37 38 42 45 46 47 51 52 55 56 65 67 71 73 75 79 80 83 85 86 87 88 91 92
2 3 5 9 10 17 19 20 23 24 28 29 31 32 33 34 40 41 42 47 49 51 52 54 55 57 58 60 62 63 66 67 68 71 72 73 75 77 81 82 84 87 91
1 2 3 7 8 12 15 17 18 20 22 25 29 30 31 32 34 35 40 41 44 50 51 52 56 58 59 60 63 64 66 67 68 70 72 74 77 78 79 80 83 84 85 87 89 90
0 1 2 4 5 6 8 10 11 13 14 15 18 19 20 22 25 28 36 37 38 39 40 43 45 47 49 50 53 54 55 56 59 60 69 70 73 76 77 78 82 83 85 87 89
2 3 4 5 11 13 14 18 23 24 28 30 31 33 34 38 39 42 43 44 45 46 47 51 52 53 54 55 57 59 63 65 68 69 70 74 76 77 79 83 86 87 89
0 1 7 9 10 11 12 13 17 19 21 30 33 34 38 40 42 43 44 47 48 50 51 52 54 58 59 61 63 68 69 71 72 73 77 78 81 82 83 85 86 88 89 91 92
5 8 9 11 16 17 18 19 21 28 30 37 40 41 43 44 45 46 47 48 49 51 53 54 55 58 61 62 63 64 65 66 71 73 74 77 78 79 80 84 88 92
0 2 3 5 9 13 14 16 18 19 21 22 24 25 27 29 32 33 35 37 38 40 48 49 51 52 53 54 58 61 62 63 65 68 73 75 77 85 91
2 5 6 10 13 16 17 20 22 23 28 31 32 33 34 35 36 41 45 49 51 52 57 60 66 69 70 76 80 81 88 89 91 92
0 2 6 12 15 19 20 21 23 25 26 27 31 32 33 38 39 40 42 43 45 47 48 49 52 53 55 56 58 59 66 68 69 71 72 75 77 78 79 82 85 86 87 89 91
0 3 6 7 8 9 11 12 15 17 18 19 21 22 23 25 29 30 32 34 35 36 37 38 44 46 50 54 55 56 59 60 63 65 66 70 71 75 78 80 81 82 86 88 89 91 92
0 7 8 12 17 18 22 23 28 29 30 31 33 38 41 43 44 45 46 48 50 53 56 57 59 61 63 64 65 67 68 70 71 72 74 76 77 78 79 80 81 89 91
1 3 6 7 8 10 11 12 15 16 18 19 20 22 25 26 28 29 30 32 34 38 40 41 42 46 50 51 52 58 59 60 66 72 73 74 75 76 77 78 79 80 81 83 84 90 91 92
0 1 5 6 8 14 18 22 23 25 26 29 31 33 36 37 39 40 43 44 45 46 49 52 53 59 64 66 69 70 73 74 77 78 80 81 82 83 84 85 87 88 89 90 91 92
0 3 5 7 8 9 11 15 17 18 20 23 28 29 31 36 41 43 44 45 52 53 55 56 66 72 75 77 78 79 80 85 87 88 89
1 2 4 8 9 10 11 13 15 17 18 20 21 24 29 31 34 35 40 43 48 49 50 51 53 54 57 59 61 62 64 70 71 73 75 76 77 78 79 83 85 88 89 90 91
0 2 3 10 11 14 20 21 24 27 28 31 34 39 40 41 43 44 50 60 62 66 69 70 71 74 75 76 79 80 81 83 87 89 90
2 3 6 15 16 17 18 20 21 24 25 26 28 30 31 32 33 43 44 47 48 49 50 51 55 56 58 61 64 66 68 73 74 78 81 83
0 4 10 11 14 16 17 18 24 25 30 34 37 41 43 48 49 50 51 52 53 54 56 57 60 62 63 65 66 68 69 71 72 74 76 78 82 88 89 90
2 3 4 5 6 8 10 13 15 17 18 20 22 23 24 26 27 28 30 33 34 36 37 41 42 43 44 49 52 55 62 66 77 79 81 84 86 90 91 92
0 2 5 7 8 11 14 16 17 19 22 23 27 29 32 33 35 37 39 40 43 44 45 46 47 48 51 53 56 62 63 64 66 67 68 69 70 72 73 76 78 81 83 85 87 88 89 90 92
0 1 2 4 6 8 9 11 12 18 19 20 21 22 25 26 30 33 40 44 47 48 50 52 53 60 61 63 65 66 67 68 72 73 74 75 77 79 89 90 92
3 4 8 9 15 20 24 25 26 27 30 32 34 35 36 37 38 39 40 41 44 46 48 50 53 54 55 56 57 59 61 66 69 70 71 72 73 75 76 80 83 86 88
0 2 3 4 6 11 15 16 18 20 23 25 26 27 31 32 34 35 37 38 40 41 42 43 48 50 51 53 55 59 62 66 68 69 70 71 72 73 75 77 79 82 84 85 86 87 89 91 92
0 3 4 5 7 8 10 11 17 19 20 21 24 25 27 29 30 32 34 35 41 46 47 48 49 50 51 55 56 59 62 63 64 69 71 74 75 76 78 79 83 85 86 87 88 90 91
0 4 7 8 9 12 13 16 19 21 25 27 31 32 33 34 41 43 45 47 48 50 51 52 53 59 60 61 66 67 69 72 77 80 81 90 91 92
0 2 3 4 6 7 8 11 13 14 17 18 21 22 24 25 26 27 30 38 41 42 45 46 49 50 51 54 58 61 62 65 66 68 69 74 75 76 77 80 81 83 84 87 88 89
1 3 6 7 10 11 14 15 16 26 27 28 30 32 36 38 39 41 42 43 44 45 46 49 51 52 53 54 58 59 65 67 68 69 70 71 72 73 74 75 77 80 81 82 85 86 90
1 4 7 9 11 12 15 16 17 22 24 27 28 29 30 34 36 38 39 40 45 47 48 50 51 52 57 58 60 63 64 65 66 67 70 74 76 77 83 84 85 86 87 88
1 2 4 7 8 9 10 11 12 15 17 18 20 23 24 26 31 32 33 36 37 38 39 42 43 44 45 46 47 49 58 59 60 63 64 72 74 77 79 81 83 84 85 87 88 89 90
1 3 4 6 7 9 13 14 16 17 19 21 22 23 25 26 27 28 29 33 36 38 39 41 44 45 46 47 48 49 57 58 63 68 71 72 73 76 80 84 85 86 87 88 91 92
2 3 5 8 9 10 13 14 15 16 17 19 21 22 23 25 26 28 29 30 33 34 35 39 40 42 46 48 49 55 56 57 58 62 66 67 71 72 74 75 78 79 84 86 91
2 3 4 6 10 13 18 24 25 27 28 30 32 34 35 36 39 41 42 43 44 46 48 54 55 58 63 66 72 73 74 75 76 80 81 82 91 92
0 7 14 15 16 17 19 20 22 24 25 26 27 28 31 36 39 43 47 48 53 55 57 58 59 60 66 67 70 71 72 73 74 75 77 79 81 87 89 90 91
6 8 9 10 12 13 15 17 18 19 20 21 22 24 25 27 30 31 35 38 40 43 44 45 52 53 54 56 57 61 66 68 73 74 78 81 83 85 86 89 91
2 3 5 6 7 8 10 12 13 14 16 17 18 20 21 23 24 30 31 32 35 38 39 41 43 45 52 55 63 65 67 73 74 77 78 80 81 84 85 86 88 91 92
0 1 4 11 13 14 22 25 29 32 36 39 43 49 51 52 54 55 58 61 64 66 70 71 72 73 76 77 78 79 80 84 86 88 89 91
5 6 8 11 12 13 14 22 23 26 27 28 30 33 38 47 48 49 50 51 52 53 54 57 59 60 63 65 67 69 71 72 74 83 84 86 87 89 90
2 6 8 14 15 16 18 23 24 25 26 30 31 32 33 34 36 43 44 45 46 48 50 54 58 62 68 70 71 74 77 78 80 82 90 91
1 5 6 7 8 9 12 22 23 24 29 31 33 37 39 42 46 49 50 54 58 65 66 67 70 71 73 74 79 82 83 84 87 88 89
0 4 6 9 10 11 13 14 17 18 26 27 28 32 36 38 42 43 46 47 55 57 66 67 71 75 76 78 79 81 83 87 88 89 90
3 4 5 6 7 10 13 15 16 18 20 22 27 28 36 37 39 40 41 44 45 47 52 59 64 67 71 76 77 79 80 83 85 91 92
3 4 5 6 9 12 13 16 17 22 23 25 26 27 28 31 32 39 41 42 45 49 50 51 53 56 58 65 68 70 71 73 74 75 76 78 83 84 92
2 5 7 9 11 12 23 27 32 34 36 38 41 45 49 50 57 62 65 66 67 69 70 71 73 75 76 80 81 82 85 87 89 90
0 1 2 4 5 9 10 12 14 16 21 25 27 28 31 32 39 42 47 48 49 56 58 60 63 64 67 68 69 74 76 79 84 86 89 92
0 1 2 9 10 11 12 16 17 20 22 23 27 29 30 31 33 34 35 37 38 39 40 41 42 43 44 46 47 49 52 53 54 55 57 60 61 64 67 69 73 75 77 78 79 80 81 84 85 86 88 89 91
0 1 4 6 8 9 10 13 15 21 22 23 32 41 42 46 48 49 52 54 56 58 60 61 62 64 65 66 72 77 79 80 82 84 86 88
0 2 3 4 5 6 7 8 9 12 13 14 15 17 22 23 25 26 28 30 32 38 39 41 42 44 47 48 51 55 59 63 65 70 75 77 78 79 83 84 85 86 88
0 1 3 7 9 11 12 13 14 17 24 25 26 29 30 34 37 39 41 43 44 45 46 47 48 58 64 65 66 72 74 76 77 78 81 82 83 85 87 91 92
3 4 5 7 10 11 13 15 16 23 24 25 29 31 32 34 36 37 41 43 44 48 49 54 57 59 60 63 64 68 74 77 80 81 83 90
3 4 6 7 8 9 10 11 13 16 17 20 21 22 26 27 30 31 32 36 37 39 43 44 45 48 51 52 54 57 58 59 60 61 62 63 64 72 74 76 79 84 87 88
1 6 15 16 18 22 23 26 30 32 33 35 39 41 42 43 44 46 48 50 51 52 53 54 57 58 67 69 71 73 76 78 79 80 83 85 86 90 91
3 5 7 8 10 13 14 16 17 19 20 21 22 24 26 27 28 33 34 36 38 41 42 43 44 48 51 53 54 55 56 57 60 63 64 66 72 76 77 78 79 83 86 88 90 92
2 5 9 15 16 17 18 19 20 23 25 27 32 33 34 37 38 39 42 45 47 48 49 50 52 53 54 55 56 58 59 60 63 65 69 70 71 76 77 81 82 83 85 91
0 1 4 5 6 10 12 13 15 16 21 22 28 30 31 33 35 36 37 42 43 44 45 47 48 52 53 54 61 63 64 66 68 76 77 79 83 86 91 92
0 1 3 6 7 8 9 11 13 19 20 24 25 29 32 33 36 37 39 41 43 45 47 49 51 53 57 61 62 63 64 65 69 71 72 73 74 75 78 79 80 81 83 84 85 86 87 88 90 92
1 3 9 11 12 16 22 23 24 25 26 27 28 30 32 33 34 35 36 40 42 44 46 47 48 49 50 54 56 57 59 62 66 67 68 69 70 73 74 75 79 80 84 87 88 91
0 4 7 8 10 14 16 20 23 24 26 27 30 31 32 33 34 35 36 38 39 41 45 52 55 56 57 59 61 63 66 68 69 72 73 76 81 83 84 91
7 9 10 16 17 18 19 20 21 23 25 27 30 32 33 35 36 37 40 42 44 45 50 52 54 57 60 61 62 65 66 67 68 71 72 73 75 76 77 80 83 84 85 87 90
2 7 8 10 13 19 21 23 27 29 31 32 33 34 35 37 43 46 47 48 51 53 56 57 59 62 64 66 67 70 72 76 77 79 83 84 89 91 92
0 1 3 5 8 9 10 12 13 14 19 20 22 26 29 31 32 33 34 37 38 40 41 46 47 48 50 53 54 55 56 61 64 66 69 70 74 76 78 82 83 84 85 86 88 89 92
2 5 7 8 11 13 14 18 22 24 26 30 31 34 39 44 48 53 59 60 64 67 69 74 81 83 85 86 87
0 2 6 11 15 16 17 18 20 21 23 24 25 26 33 34 36 37 38 41 43 45 47 49 50 55 58 60 61 62 63 68 69 70 72 73 74 75 76 78 79 80 81 82 85 86 89 90 92
1 2 3 6 7 10 11 12 13 14 18 22 23 27 33 34 40 44 47 49 50 51 52 56 57 58 60 63 65 66 67 68 71 76 77 78 79 80 81 87 90 91 92
0 5 6 7 8 9 12 14 16 21 23 24 26 28 30 34 35 36 41 44 45 48 49 50 51 55 56 62 64 66 68 69 72 74 76 79 81 82 83 86 88 89 91
0 4 5 7 10 14 17 20 21 25 26 30 31 40 43 44 45 48 49 51 52 55 56 57 58 65 66 67 68 72 73 75 76 81 82 83 85 87
0 2 4 5 6 7 8 10 11 13 14 16 19 20 21 22 23 24 25 30 34 35 37 41 44 45 47 49 50 51 54 58 60 61 64 69 71 76 77 79 82 84 86 88 91 92
0 1 3 4 11 13 15 20 21 26 27 29 31 34 35 36 39 41 43 45 47 49 50 51 56 57 60 61 66 67 68 71 73 76 77 81 85 87 89 91
2 4 5 7 8 9 12 13 14 16 17 18 19 23 24 25 26 29 30 31 32 34 35 36 37 39 41 42 44 47 50 54 55 57 58 60 61 64 65 66 80 81 83 85 88 92
0 2 4 5 6 11 13 20 23 33 34 36 37 39 40 41 42 45 46 48 50 54 58 59 61 64 70 72 73 76 79 83 84
0 1 3 4 5 6 8 9 10 13 17 19 20 21 22 26 28 29 30 31 32 33 34 36 40 44 45 46 51 52 53 54 55 56 57 59 62 66 69 72 74 75 77 78 80 84 85 87 88
2 5 9 13 14 15 16 21 26 27 29 31 33 34 40 41 42 44 46 51 53 56 62 63 65 69 73 75 76 80 81 83 84 87 89
